c description: Graph pigeonhole principle formula on fast_gnp_random_graph(20,10,0.5)
c generator: CNFgen (0.9.0)
c copyright: (C) 2012-2020 Massimo Lauria <massimo.lauria@uniroma1.it>
c url: https://massimolauria.net/cnfgen
c
p cnf 99 470
1 2 3 4 5 6 7 0
8 9 10 0
11 12 13 14 0
15 16 17 18 19 20 0
21 22 23 24 25 26 0
27 28 29 30 31 0
32 33 0
34 35 36 37 38 0
39 40 41 42 0
43 44 45 46 47 48 0
49 50 51 52 53 0
54 55 56 57 0
58 59 60 61 62 0
63 64 65 66 0
67 68 69 70 71 0
72 73 74 75 76 77 0
78 79 80 81 82 83 84 0
85 86 87 88 0
89 90 91 92 93 94 0
95 96 97 98 99 0
-1 -27 0
-1 -34 0
-1 -43 0
-1 -49 0
-1 -54 0
-1 -72 0
-1 -78 0
-1 -85 0
-1 -89 0
-1 -95 0
-27 -34 0
-27 -43 0
-27 -49 0
-27 -54 0
-27 -72 0
-27 -78 0
-27 -85 0
-27 -89 0
-27 -95 0
-34 -43 0
-34 -49 0
-34 -54 0
-34 -72 0
-34 -78 0
-34 -85 0
-34 -89 0
-34 -95 0
-43 -49 0
-43 -54 0
-43 -72 0
-43 -78 0
-43 -85 0
-43 -89 0
-43 -95 0
-49 -54 0
-49 -72 0
-49 -78 0
-49 -85 0
-49 -89 0
-49 -95 0
-54 -72 0
-54 -78 0
-54 -85 0
-54 -89 0
-54 -95 0
-72 -78 0
-72 -85 0
-72 -89 0
-72 -95 0
-78 -85 0
-78 -89 0
-78 -95 0
-85 -89 0
-85 -95 0
-89 -95 0
-15 -21 0
-15 -28 0
-15 -50 0
-15 -58 0
-15 -73 0
-15 -79 0
-15 -90 0
-21 -28 0
-21 -50 0
-21 -58 0
-21 -73 0
-21 -79 0
-21 -90 0
-28 -50 0
-28 -58 0
-28 -73 0
-28 -79 0
-28 -90 0
-50 -58 0
-50 -73 0
-50 -79 0
-50 -90 0
-58 -73 0
-58 -79 0
-58 -90 0
-73 -79 0
-73 -90 0
-79 -90 0
-2 -16 0
-2 -32 0
-2 -39 0
-2 -55 0
-2 -59 0
-2 -67 0
-2 -74 0
-2 -80 0
-16 -32 0
-16 -39 0
-16 -55 0
-16 -59 0
-16 -67 0
-16 -74 0
-16 -80 0
-32 -39 0
-32 -55 0
-32 -59 0
-32 -67 0
-32 -74 0
-32 -80 0
-39 -55 0
-39 -59 0
-39 -67 0
-39 -74 0
-39 -80 0
-55 -59 0
-55 -67 0
-55 -74 0
-55 -80 0
-59 -67 0
-59 -74 0
-59 -80 0
-67 -74 0
-67 -80 0
-74 -80 0
-8 -17 0
-8 -22 0
-8 -35 0
-8 -40 0
-8 -44 0
-8 -51 0
-8 -68 0
-8 -81 0
-8 -91 0
-8 -96 0
-17 -22 0
-17 -35 0
-17 -40 0
-17 -44 0
-17 -51 0
-17 -68 0
-17 -81 0
-17 -91 0
-17 -96 0
-22 -35 0
-22 -40 0
-22 -44 0
-22 -51 0
-22 -68 0
-22 -81 0
-22 -91 0
-22 -96 0
-35 -40 0
-35 -44 0
-35 -51 0
-35 -68 0
-35 -81 0
-35 -91 0
-35 -96 0
-40 -44 0
-40 -51 0
-40 -68 0
-40 -81 0
-40 -91 0
-40 -96 0
-44 -51 0
-44 -68 0
-44 -81 0
-44 -91 0
-44 -96 0
-51 -68 0
-51 -81 0
-51 -91 0
-51 -96 0
-68 -81 0
-68 -91 0
-68 -96 0
-81 -91 0
-81 -96 0
-91 -96 0
-3 -9 0
-3 -36 0
-3 -41 0
-3 -45 0
-3 -63 0
-3 -69 0
-3 -75 0
-3 -82 0
-3 -92 0
-3 -97 0
-9 -36 0
-9 -41 0
-9 -45 0
-9 -63 0
-9 -69 0
-9 -75 0
-9 -82 0
-9 -92 0
-9 -97 0
-36 -41 0
-36 -45 0
-36 -63 0
-36 -69 0
-36 -75 0
-36 -82 0
-36 -92 0
-36 -97 0
-41 -45 0
-41 -63 0
-41 -69 0
-41 -75 0
-41 -82 0
-41 -92 0
-41 -97 0
-45 -63 0
-45 -69 0
-45 -75 0
-45 -82 0
-45 -92 0
-45 -97 0
-63 -69 0
-63 -75 0
-63 -82 0
-63 -92 0
-63 -97 0
-69 -75 0
-69 -82 0
-69 -92 0
-69 -97 0
-75 -82 0
-75 -92 0
-75 -97 0
-82 -92 0
-82 -97 0
-92 -97 0
-4 -18 0
-4 -23 0
-4 -42 0
-4 -46 0
-4 -52 0
-4 -64 0
-4 -83 0
-4 -98 0
-18 -23 0
-18 -42 0
-18 -46 0
-18 -52 0
-18 -64 0
-18 -83 0
-18 -98 0
-23 -42 0
-23 -46 0
-23 -52 0
-23 -64 0
-23 -83 0
-23 -98 0
-42 -46 0
-42 -52 0
-42 -64 0
-42 -83 0
-42 -98 0
-46 -52 0
-46 -64 0
-46 -83 0
-46 -98 0
-52 -64 0
-52 -83 0
-52 -98 0
-64 -83 0
-64 -98 0
-83 -98 0
-5 -11 0
-5 -24 0
-5 -29 0
-5 -60 0
-5 -70 0
-5 -84 0
-5 -86 0
-5 -93 0
-11 -24 0
-11 -29 0
-11 -60 0
-11 -70 0
-11 -84 0
-11 -86 0
-11 -93 0
-24 -29 0
-24 -60 0
-24 -70 0
-24 -84 0
-24 -86 0
-24 -93 0
-29 -60 0
-29 -70 0
-29 -84 0
-29 -86 0
-29 -93 0
-60 -70 0
-60 -84 0
-60 -86 0
-60 -93 0
-70 -84 0
-70 -86 0
-70 -93 0
-84 -86 0
-84 -93 0
-86 -93 0
-10 -12 0
-10 -25 0
-10 -30 0
-10 -37 0
-10 -47 0
-10 -56 0
-10 -71 0
-10 -76 0
-10 -87 0
-10 -94 0
-12 -25 0
-12 -30 0
-12 -37 0
-12 -47 0
-12 -56 0
-12 -71 0
-12 -76 0
-12 -87 0
-12 -94 0
-25 -30 0
-25 -37 0
-25 -47 0
-25 -56 0
-25 -71 0
-25 -76 0
-25 -87 0
-25 -94 0
-30 -37 0
-30 -47 0
-30 -56 0
-30 -71 0
-30 -76 0
-30 -87 0
-30 -94 0
-37 -47 0
-37 -56 0
-37 -71 0
-37 -76 0
-37 -87 0
-37 -94 0
-47 -56 0
-47 -71 0
-47 -76 0
-47 -87 0
-47 -94 0
-56 -71 0
-56 -76 0
-56 -87 0
-56 -94 0
-71 -76 0
-71 -87 0
-71 -94 0
-76 -87 0
-76 -94 0
-87 -94 0
-6 -13 0
-6 -19 0
-6 -26 0
-6 -48 0
-6 -57 0
-6 -61 0
-6 -65 0
-13 -19 0
-13 -26 0
-13 -48 0
-13 -57 0
-13 -61 0
-13 -65 0
-19 -26 0
-19 -48 0
-19 -57 0
-19 -61 0
-19 -65 0
-26 -48 0
-26 -57 0
-26 -61 0
-26 -65 0
-48 -57 0
-48 -61 0
-48 -65 0
-57 -61 0
-57 -65 0
-61 -65 0
-7 -14 0
-7 -20 0
-7 -31 0
-7 -33 0
-7 -38 0
-7 -53 0
-7 -62 0
-7 -66 0
-7 -77 0
-7 -88 0
-7 -99 0
-14 -20 0
-14 -31 0
-14 -33 0
-14 -38 0
-14 -53 0
-14 -62 0
-14 -66 0
-14 -77 0
-14 -88 0
-14 -99 0
-20 -31 0
-20 -33 0
-20 -38 0
-20 -53 0
-20 -62 0
-20 -66 0
-20 -77 0
-20 -88 0
-20 -99 0
-31 -33 0
-31 -38 0
-31 -53 0
-31 -62 0
-31 -66 0
-31 -77 0
-31 -88 0
-31 -99 0
-33 -38 0
-33 -53 0
-33 -62 0
-33 -66 0
-33 -77 0
-33 -88 0
-33 -99 0
-38 -53 0
-38 -62 0
-38 -66 0
-38 -77 0
-38 -88 0
-38 -99 0
-53 -62 0
-53 -66 0
-53 -77 0
-53 -88 0
-53 -99 0
-62 -66 0
-62 -77 0
-62 -88 0
-62 -99 0
-66 -77 0
-66 -88 0
-66 -99 0
-77 -88 0
-77 -99 0
-88 -99 0